
******************************************************************************
This program contains Ipopt, a library for large-scale nonlinear optimization.
 Ipopt is released as open source code under the Eclipse Public License (EPL).
         For more information visit http://projects.coin-or.org/Ipopt

This version of Ipopt was compiled from source code available at
    https://github.com/IDAES/Ipopt as part of the Institute for the Design of
    Advanced Energy Systems Process Systems Engineering Framework (IDAES PSE
    Framework) Copyright (c) 2018-2019. See https://github.com/IDAES/idaes-pse.

This version of Ipopt was compiled using HSL, a collection of Fortran codes
    for large-scale scientific computation.  All technical papers, sales and
    publicity material resulting from use of the HSL codes within IPOPT must
    contain the following acknowledgement:
        HSL, a collection of Fortran codes for large-scale scientific
        computation. See http://www.hsl.rl.ac.uk.
******************************************************************************

This is Ipopt version 3.13.2, running with linear solver ma27.

Number of nonzeros in equality constraint Jacobian...:      808
Number of nonzeros in inequality constraint Jacobian.:        0
Number of nonzeros in Lagrangian Hessian.............:      702

Total number of variables............................:      351
                     variables with only lower bounds:      108
                variables with lower and upper bounds:      189
                     variables with only upper bounds:        0
Total number of equality constraints.................:      350
Total number of inequality constraints...............:        0
        inequality constraints with only lower bounds:        0
   inequality constraints with lower and upper bounds:        0
        inequality constraints with only upper bounds:        0

iter    objective    inf_pr   inf_du lg(mu)  ||d||  lg(rg) alpha_du alpha_pr  ls
   0  0.0000000e+00 5.59e-01 2.75e-14  -1.0 0.00e+00    -  0.00e+00 0.00e+00   0
   1  9.3291931e-01 2.72e-01 1.16e+05  -1.0 1.27e+05    -  5.93e-01 5.16e-01h  1
   2  9.4823160e-01 2.70e-01 1.15e+05  -1.0 5.16e+04    -  7.84e-01 9.05e-03h  1
   3  3.2255540e+00 1.75e-01 8.26e+04  -1.0 2.24e+05    -  7.74e-01 3.72e-01h  1
   4  1.6968034e+01 1.61e-02 1.07e+04  -1.0 1.57e+05    -  8.39e-01 9.90e-01h  1
   5  1.8842286e+01 2.92e-04 9.32e+01  -1.0 1.46e+04    -  9.78e-01 9.90e-01h  1
   6  1.8881407e+01 2.98e-06 2.00e+01  -1.0 2.92e+02    -  9.90e-01 9.90e-01h  1
   7  1.8987031e+01 2.23e-06 1.95e+03  -1.0 7.48e+02    -  9.90e-01 9.90e-01H  1
   8  1.8930861e+01 1.59e-05 5.67e+07  -2.5 9.96e+02    -  9.97e-01 3.93e-01f  2
   9  1.8876828e+01 1.38e-05 5.98e+05  -2.5 3.79e+02    -  1.00e+00 9.97e-01h  1
iter    objective    inf_pr   inf_du lg(mu)  ||d||  lg(rg) alpha_du alpha_pr  ls
  10  1.8876884e+01 3.98e-08 1.55e+08  -2.5 3.89e-01    -  1.00e+00 9.97e-01h  1
In iteration 10, 27 Slacks too small, adjusting variable bounds
  11  1.8876884e+01 1.12e-10 5.47e+10  -2.5 4.41e-04    -  1.00e+00 9.97e-01h  1
  12  1.8876884e+01 1.13e-10 1.93e+13  -2.5 6.38e-06    -  1.00e+00 1.53e-05h 17
  13  1.8876884e+01 1.12e-10 1.93e+13  -2.5 6.42e-06    -  1.00e+00 1.91e-06h 20
  14  1.8876884e+01 6.48e-10 3.40e-03  -2.5 6.42e-06    -  1.00e+00 1.00e+00s 22
  15  1.8874036e+01 3.97e-08 7.72e-03  -9.0 2.01e+01    -  9.93e-01 9.93e-01s 22
  16  1.8874036e+01 8.68e-10 5.61e-08  -9.0 2.01e-03    -  1.00e+00 1.00e+00s 22

Number of Iterations....: 16

                                   (scaled)                 (unscaled)
Objective...............:   1.8874035517520507e+01    1.8874035517520507e+01
Dual infeasibility......:   5.6093995226547122e-08    5.6093995226547122e-08
Constraint violation....:   8.6801610343911761e-10    8.6801610343911761e-10
Complementarity.........:   9.1017930626661521e-10    9.1017930626661521e-10
Overall NLP error.......:   4.8957297859547639e-09    5.6093995226547122e-08


Number of objective function evaluations             = 81
Number of objective gradient evaluations             = 17
Number of equality constraint evaluations            = 81
Number of inequality constraint evaluations          = 0
Number of equality constraint Jacobian evaluations   = 17
Number of inequality constraint Jacobian evaluations = 0
Number of Lagrangian Hessian evaluations             = 16
Total CPU secs in IPOPT (w/o function evaluations)   =      0.041
Total CPU secs in NLP function evaluations           =      0.641

EXIT: Optimal Solution Found.
